<instance format="XCSP3" type="CSP">
  <variables>
    <var id="x0"> 10 14 </var>
    <var id="x1"> 3 12 14 </var>
    <var id="x2"> 4 10..12 14 </var>
    <var id="x3"> 4 9..11 </var>
    <var id="x4"> 4 9 </var>
    <var id="x5"> 4 9..11 </var>
    <var id="x6"> 3 4 9 12 14 </var>
    <var id="x7"> 0 9 11 14 </var>
    <var id="x8"> 0 1 13 </var>
    <var id="x9"> 0 6 9 11 14 </var>
    <var id="x10"> 0 1 6 14 </var>
    <var id="x11"> 0 9 13 14 </var>
    <var id="x12"> 0 1 9 11 </var>
    <var id="x13"> 0 9 13 14 </var>
    <var id="x14"> 0 2 </var>
    <var id="x15"> 5 8 14 </var>
    <var id="x16"> 0 2 5 6 14 </var>
    <var id="x17"> 2 6 10 14 </var>
    <var id="x18"> 2 6 8 10 </var>
    <var id="x19"> 0 6 14 </var>
    <var id="x20"> 0 2 14 </var>
    <var id="x21"> 0 14 </var>
    <var id="x22"> 0 1 3 4 12 </var>
    <var id="x23"> 1 3 8 12 14 </var>
    <var id="x24"> 1 3 11 12 14 </var>
    <var as="x23" id="x25"/>
    <var id="x26"> 4 8 </var>
    <var id="x27"> 0 1 3 12 14 </var>
    <var id="x28"> 0 3 4 12 14 </var>
    <var id="x29"> 2 6 7 14 </var>
    <var id="x30"> 2 6 14 </var>
    <var id="x31"> 1 3 6 7 14 </var>
    <var id="x32"> 2 6 14 </var>
    <var id="x33"> 1 3 14 </var>
    <var id="x34"> 3 8 14 </var>
    <var id="x35"> 1 8 </var>
    <var id="x36"> 2 5 10 14 </var>
    <var id="x37"> 3 9 14 </var>
    <var id="x38"> 3 14 </var>
    <var id="x39"> 2 10 14 </var>
    <var id="x40"> 2 8..10 </var>
    <var id="x41"> 3 5 8 9 14 </var>
    <var id="x42"> 2 5 8 9 </var>
    <var id="x43"> 0 2 5 7 </var>
    <var id="x44"> 0 7 9 11 </var>
    <var id="x45"> 0 2 4 </var>
    <var id="x46"> 5 </var>
    <var id="x47"> 5 9 </var>
    <var id="x48"> 0 4 9 11 </var>
    <var id="x49"> 0 2 4 9 </var>
    <var id="x50"> 0 5 7 </var>
    <var id="x51"> 0 3 7 9 12 </var>
    <var id="x52"> 0 3 12 13 </var>
    <var id="x53"> 3 5 12 13 </var>
    <var id="x54"> 0 5 9 </var>
    <var id="x55"> 5 7 9 </var>
    <var id="x56"> 0 3 9 12 13 </var>
    <var id="x57"> 6 7 14 </var>
    <var id="x58"> 7 9 11 14 </var>
    <var id="x59"> 1 14 </var>
    <var id="x60"> 4 6 11 14 </var>
    <var id="x61"> 1 9 11 14 </var>
    <var id="x62"> 1 6 7 14 </var>
    <var id="x63"> 4 9 14 </var>
    <var id="x64"> 0 3 9 11 12 14 </var>
    <var id="x65"> 0 2 3 12 </var>
    <var id="x66"> 0 2 9 11 14 </var>
    <var id="x67"> 3 9 11 12 14 </var>
    <var id="x68"> 2 9 </var>
    <var id="x69"> 0 3 9 12 14 </var>
    <var id="x70"> 0 3 12 14 </var>
    <var id="x71"> 0 1 3 </var>
    <var id="x72"> 1 3 9 12 </var>
    <var id="x73"> 2 9 </var>
    <var id="x74"> 1 3 5 9 12 </var>
    <var id="x75"> 2 5 9 </var>
    <var id="x76"> 0 1 9 </var>
    <var id="x77"> 0 2 3 9 12 </var>
    <var id="x78"> 0 6 14 </var>
    <var id="x79"> 0 4 6 14 </var>
    <var id="x80"> 4 6 12 14 </var>
    <var id="x81"> 4 6 8 </var>
    <var id="x82"> 0 4 8 </var>
    <var id="x83"> 0 6 12 14 </var>
    <var id="x84"> 0 4 12..14 </var>
    <var id="x85"> 1 12..14 </var>
    <var id="x86"> 0 14 </var>
    <var id="x87"> 0 1 4 7 14 </var>
    <var id="x88"> 1 12 14 </var>
    <var id="x89"> 4 </var>
    <var id="x90"> 1 12 14 </var>
    <var id="x91"> 0 12..14 </var>
    <var id="x92"> 3 9 12 14 </var>
    <var id="x93"> 3 9 10 12 14 </var>
    <var id="x94"> 3 8 9 12 14 </var>
    <var id="x95"> 6 8 9 </var>
    <var as="x94" id="x96"/>
    <var id="x97"> 8..10 </var>
    <var id="x98"> 3 6 12 14 </var>
    <var id="x99"> 1..4 12 </var>
    <var id="x100"> 1 3 4 6 </var>
    <var id="x101"> 2 4 6 10 12 </var>
    <var id="x102"> 2 4 6 10 </var>
    <var id="x103"> 1 3 12 </var>
    <var id="x104"> 3 12 </var>
    <var id="x105"> 1 3 6 12 </var>
  </variables>
  <constraints>
    <group>
      <allDifferent> %... </allDifferent>
      <args> x0 x1 x2 x3 x4 x5 x6 </args>
      <args> x7 x8 x9 x10 x11 x12 x13 </args>
      <args> x14 x15 x16 x17 x18 x19 x20 </args>
      <args> x21 x22 x23 x24 x25 x26 x27 x28 </args>
      <args> x29 x30 x31 x32 x33 x34 x35 </args>
      <args> x36 x37 x38 x39 x40 x41 x42 </args>
      <args> x43 x44 x45 x46 x47 x48 x49 </args>
      <args> x50 x51 x52 x53 x54 x55 x56 </args>
      <args> x57 x58 x59 x60 x61 x62 x63 </args>
      <args> x64 x65 x66 x67 x68 x69 x70 </args>
      <args> x71 x72 x73 x74 x75 x76 x77 </args>
      <args> x78 x79 x80 x81 x82 x83 x84 </args>
      <args> x85 x86 x87 x88 x89 x90 x91 </args>
      <args> x92 x93 x94 x95 x96 x97 x98 </args>
      <args> x99 x100 x101 x102 x103 x104 x105 </args>
      <args> x0 x21 x29 x36 x43 x50 x57 </args>
      <args> x7 x37 x44 x51 x58 x64 x92 </args>
      <args> x8 x14 x22 x45 x52 x65 x99 </args>
      <args> x1 x15 x23 x46 x53 x59 x85 </args>
      <args> x9 x16 x30 x54 x66 x78 x86 </args>
      <args> x10 x31 x38 x71 x79 x87 x100 </args>
      <args> x2 x17 x32 x39 x60 x80 x101 </args>
      <args> x24 x33 x61 x67 x72 x88 x93 </args>
      <args> x3 x18 x40 x73 x81 x89 x102 </args>
      <args> x25 x41 x47 x74 x90 x94 x103 </args>
      <args> x4 x26 x42 x55 x68 x75 x95 </args>
      <args> x11 x34 x56 x69 x91 x96 x104 </args>
      <args> x5 x12 x35 x48 x76 x82 x97 </args>
      <args> x19 x27 x62 x70 x83 x98 x105 </args>
      <args> x6 x13 x20 x28 x49 x63 x77 x84 </args>
    </group>
  </constraints>
</instance>

